VER
4

OBJSENSE
MIN

VAR
136 1
F 136

CON
338 2
SVECQRE 273
L= 65

OBJACOORD
20
0 1.0
2 1.0
5 1.0
9 1.0
14 -1.0
20 -1.0
27 -1.0
35 -1.0
40 -2.8284271247461903
44 -1.0
50 -2.8284271247461903
54 -1.0
61 -2.8284271247461903
65 -1.0
73 -2.8284271247461903
77 -1.0
90 1.0
104 1.0
119 1.0
135 1.0

ACOORD
548
1 0 1.0
2 1 1.0
3 2 1.0
4 3 1.0
5 4 1.0
6 5 1.0
7 6 1.0
8 7 1.0
9 8 1.0
10 9 1.0
11 10 1.0
12 11 1.0
13 12 1.0
14 13 1.0
15 14 1.0
16 15 1.0
17 16 1.0
18 17 1.0
19 18 1.0
20 19 1.0
21 20 1.0
22 21 1.0
23 22 1.0
24 23 1.0
25 24 1.0
26 25 1.0
27 26 1.0
28 27 1.0
29 28 1.0
30 29 1.0
31 30 1.0
32 31 1.0
33 32 1.0
34 33 1.0
35 34 1.0
36 35 1.0
37 36 1.0
38 37 1.0
39 38 1.0
40 39 1.0
41 40 1.0
42 41 1.0
43 42 1.0
44 43 1.0
45 44 1.0
46 45 1.0
47 46 1.0
48 47 1.0
49 48 1.0
50 49 1.0
51 50 1.0
52 51 1.0
53 52 1.0
54 53 1.0
55 54 1.0
56 55 1.0
57 56 1.0
58 57 1.0
59 58 1.0
60 59 1.0
61 60 1.0
62 61 1.0
63 62 1.0
64 63 1.0
65 64 1.0
66 65 1.0
67 66 1.0
68 67 1.0
69 68 1.0
70 69 1.0
71 70 1.0
72 71 1.0
73 72 1.0
74 73 1.0
75 74 1.0
76 75 1.0
77 76 1.0
78 77 1.0
79 78 1.0
80 79 1.0
81 80 1.0
82 81 1.0
83 82 1.0
84 83 1.0
85 84 1.0
86 85 1.0
87 86 1.0
88 87 1.0
89 88 1.0
90 89 1.0
91 90 1.0
92 91 1.0
93 92 1.0
94 93 1.0
95 94 1.0
96 95 1.0
97 96 1.0
98 97 1.0
99 98 1.0
100 99 1.0
101 100 1.0
102 101 1.0
103 102 1.0
104 103 1.0
105 104 1.0
106 105 1.0
107 106 1.0
108 107 1.0
109 108 1.0
110 109 1.0
111 110 1.0
112 111 1.0
113 112 1.0
114 113 1.0
115 114 1.0
116 115 1.0
117 116 1.0
118 117 1.0
119 118 1.0
120 119 1.0
121 120 1.0
122 121 1.0
123 122 1.0
124 123 1.0
125 124 1.0
126 125 1.0
127 126 1.0
128 127 1.0
129 128 1.0
130 129 1.0
131 130 1.0
132 131 1.0
133 132 1.0
134 133 1.0
135 134 1.0
136 135 1.0
137 0 1.0
137 44 1.0
138 1 1.0
138 53 1.0
139 2 1.0
139 54 1.0
140 3 1.0
140 63 1.0
141 4 1.0
141 64 1.0
142 5 1.0
142 65 1.0
143 6 1.0
143 74 1.0
144 7 1.0
144 75 1.0
145 8 1.0
145 76 1.0
146 9 1.0
146 77 1.0
147 10 1.0
147 86 1.0
148 11 1.0
148 87 1.0
149 12 1.0
149 88 1.0
150 13 1.0
150 89 1.0
151 14 1.0
151 90 1.0
152 15 1.0
152 99 1.0
153 16 1.0
153 100 1.0
154 17 1.0
154 101 1.0
155 18 1.0
155 102 1.0
156 19 1.0
156 103 1.0
157 20 1.0
157 104 1.0
158 21 1.0
158 113 1.0
159 22 1.0
159 114 1.0
160 23 1.0
160 115 1.0
161 24 1.0
161 116 1.0
162 25 1.0
162 117 1.0
163 26 1.0
163 118 1.0
164 27 1.0
164 119 1.0
165 28 1.0
165 128 1.0
166 29 1.0
166 129 1.0
167 30 1.0
167 130 1.0
168 31 1.0
168 131 1.0
169 32 1.0
169 132 1.0
170 33 1.0
170 133 1.0
171 34 1.0
171 134 1.0
172 35 1.0
172 135 1.0
181 0 1.0
181 44 1.0
190 1 1.0
190 53 1.0
191 2 1.0
191 54 1.0
200 3 1.0
200 63 1.0
201 4 1.0
201 64 1.0
202 5 1.0
202 65 1.0
211 6 1.0
211 74 1.0
212 7 1.0
212 75 1.0
213 8 1.0
213 76 1.0
214 9 1.0
214 77 1.0
223 10 1.0
223 86 1.0
224 11 1.0
224 87 1.0
225 12 1.0
225 88 1.0
226 13 1.0
226 89 1.0
227 14 1.0
227 90 1.0
236 15 1.0
236 99 1.0
237 16 1.0
237 100 1.0
238 17 1.0
238 101 1.0
239 18 1.0
239 102 1.0
240 19 1.0
240 103 1.0
241 20 1.0
241 104 1.0
250 21 1.0
250 113 1.0
251 22 1.0
251 114 1.0
252 23 1.0
252 115 1.0
253 24 1.0
253 116 1.0
254 25 1.0
254 117 1.0
255 26 1.0
255 118 1.0
256 27 1.0
256 119 1.0
265 28 1.0
265 128 1.0
266 29 1.0
266 129 1.0
267 30 1.0
267 130 1.0
268 31 1.0
268 131 1.0
269 32 1.0
269 132 1.0
270 33 1.0
270 133 1.0
271 34 1.0
271 134 1.0
272 35 1.0
272 135 1.0
273 2 -1.0
273 44 1.0
274 1 0.7071067811865476
274 3 -0.7071067811865476
274 7 -0.7071067811865476
274 53 0.7071067811865476
275 3 0.7071067811865476
275 10 -0.7071067811865476
275 16 -0.7071067811865476
275 63 0.7071067811865476
276 6 0.7071067811865476
276 21 -0.7071067811865476
276 29 -0.7071067811865476
276 74 0.7071067811865476
277 10 0.7071067811865476
277 36 -0.7071067811865476
277 46 -0.7071067811865476
277 86 0.7071067811865476
278 15 0.7071067811865476
278 55 -0.7071067811865476
278 67 -0.7071067811865476
278 99 0.7071067811865476
279 21 0.7071067811865476
279 78 -0.7071067811865476
279 92 -0.7071067811865476
279 113 0.7071067811865476
280 28 0.7071067811865476
280 105 -0.7071067811865476
280 121 -0.7071067811865476
280 128 0.7071067811865476
281 1 0.7071067811865476
281 3 -0.7071067811865476
281 7 -0.7071067811865476
281 53 0.7071067811865476
282 2 1.0
282 5 -1.0
282 9 -1.0
282 54 1.0
283 4 0.7071067811865476
283 12 -0.7071067811865476
283 18 -0.7071067811865476
283 64 0.7071067811865476
284 7 0.7071067811865476
284 23 -0.7071067811865476
284 31 -0.7071067811865476
284 75 0.7071067811865476
285 11 0.7071067811865476
285 38 -0.7071067811865476
285 48 -0.7071067811865476
285 87 0.7071067811865476
286 16 0.7071067811865476
286 57 -0.7071067811865476
286 69 -0.7071067811865476
286 100 0.7071067811865476
287 22 0.7071067811865476
287 80 -0.7071067811865476
287 94 -0.7071067811865476
287 114 0.7071067811865476
288 29 0.7071067811865476
288 107 -0.7071067811865476
288 123 -0.7071067811865476
288 129 0.7071067811865476
289 3 0.7071067811865476
289 10 -0.7071067811865476
289 16 -0.7071067811865476
289 63 0.7071067811865476
290 4 0.7071067811865476
290 12 -0.7071067811865476
290 18 -0.7071067811865476
290 64 0.7071067811865476
291 5 1.0
291 14 -1.0
291 20 -1.0
291 65 1.0
292 8 0.7071067811865476
292 25 -0.7071067811865476
292 33 -0.7071067811865476
292 76 0.7071067811865476
293 12 0.7071067811865476
293 40 -0.7071067811865476
293 50 -0.7071067811865476
293 88 0.7071067811865476
294 17 0.7071067811865476
294 59 -0.7071067811865476
294 71 -0.7071067811865476
294 101 0.7071067811865476
295 23 0.7071067811865476
295 82 -0.7071067811865476
295 96 -0.7071067811865476
295 115 0.7071067811865476
296 30 0.7071067811865476
296 109 -0.7071067811865476
296 125 -0.7071067811865476
296 130 0.7071067811865476
297 6 0.7071067811865476
297 21 -0.7071067811865476
297 29 -0.7071067811865476
297 74 0.7071067811865476
298 7 0.7071067811865476
298 23 -0.7071067811865476
298 31 -0.7071067811865476
298 75 0.7071067811865476
299 8 0.7071067811865476
299 25 -0.7071067811865476
299 33 -0.7071067811865476
299 76 0.7071067811865476
300 9 1.0
300 27 -1.0
300 35 -1.0
300 77 1.0
301 13 0.7071067811865476
301 42 -0.7071067811865476
301 52 -0.7071067811865476
301 89 0.7071067811865476
302 18 0.7071067811865476
302 61 -0.7071067811865476
302 73 -0.7071067811865476
302 102 0.7071067811865476
303 24 0.7071067811865476
303 84 -0.7071067811865476
303 98 -0.7071067811865476
303 116 0.7071067811865476
304 31 0.7071067811865476
304 111 -0.7071067811865476
304 127 -0.7071067811865476
304 131 0.7071067811865476
305 10 0.7071067811865476
305 36 -0.7071067811865476
305 46 -0.7071067811865476
305 86 0.7071067811865476
306 11 0.7071067811865476
306 38 -0.7071067811865476
306 48 -0.7071067811865476
306 87 0.7071067811865476
307 12 0.7071067811865476
307 40 -0.7071067811865476
307 50 -0.7071067811865476
307 88 0.7071067811865476
308 13 0.7071067811865476
308 42 -0.7071067811865476
308 52 -0.7071067811865476
308 89 0.7071067811865476
309 14 1.0
309 44 -1.0
309 54 -1.0
309 90 1.0
310 19 0.7071067811865476
310 63 -0.7071067811865476
310 75 -0.7071067811865476
310 103 0.7071067811865476
311 25 0.7071067811865476
311 86 -0.7071067811865476
311 100 -0.7071067811865476
311 117 0.7071067811865476
312 32 0.7071067811865476
312 113 -0.7071067811865476
312 129 -0.7071067811865476
312 132 0.7071067811865476
313 15 0.7071067811865476
313 55 -0.7071067811865476
313 67 -0.7071067811865476
313 99 0.7071067811865476
314 16 0.7071067811865476
314 57 -0.7071067811865476
314 69 -0.7071067811865476
314 100 0.7071067811865476
315 17 0.7071067811865476
315 59 -0.7071067811865476
315 71 -0.7071067811865476
315 101 0.7071067811865476
316 18 0.7071067811865476
316 61 -0.7071067811865476
316 73 -0.7071067811865476
316 102 0.7071067811865476
317 19 0.7071067811865476
317 63 -0.7071067811865476
317 75 -0.7071067811865476
317 103 0.7071067811865476
318 20 1.0
318 65 -1.0
318 77 -1.0
318 104 1.0
319 26 0.7071067811865476
319 88 -0.7071067811865476
319 102 -0.7071067811865476
319 118 0.7071067811865476
320 33 0.7071067811865476
320 115 -0.7071067811865476
320 131 -0.7071067811865476
320 133 0.7071067811865476
321 21 0.7071067811865476
321 78 -0.7071067811865476
321 92 -0.7071067811865476
321 113 0.7071067811865476
322 22 0.7071067811865476
322 80 -0.7071067811865476
322 94 -0.7071067811865476
322 114 0.7071067811865476
323 23 0.7071067811865476
323 82 -0.7071067811865476
323 96 -0.7071067811865476
323 115 0.7071067811865476
324 24 0.7071067811865476
324 84 -0.7071067811865476
324 98 -0.7071067811865476
324 116 0.7071067811865476
325 25 0.7071067811865476
325 86 -0.7071067811865476
325 100 -0.7071067811865476
325 117 0.7071067811865476
326 26 0.7071067811865476
326 88 -0.7071067811865476
326 102 -0.7071067811865476
326 118 0.7071067811865476
327 27 1.0
327 90 -1.0
327 104 -1.0
327 119 1.0
328 34 0.7071067811865476
328 117 -0.7071067811865476
328 133 -0.7071067811865476
328 134 0.7071067811865476
329 28 0.7071067811865476
329 105 -0.7071067811865476
329 121 -0.7071067811865476
329 128 0.7071067811865476
330 29 0.7071067811865476
330 107 -0.7071067811865476
330 123 -0.7071067811865476
330 129 0.7071067811865476
331 30 0.7071067811865476
331 109 -0.7071067811865476
331 125 -0.7071067811865476
331 130 0.7071067811865476
332 31 0.7071067811865476
332 111 -0.7071067811865476
332 127 -0.7071067811865476
332 131 0.7071067811865476
333 32 0.7071067811865476
333 113 -0.7071067811865476
333 129 -0.7071067811865476
333 132 0.7071067811865476
334 33 0.7071067811865476
334 115 -0.7071067811865476
334 131 -0.7071067811865476
334 133 0.7071067811865476
335 34 0.7071067811865476
335 117 -0.7071067811865476
335 133 -0.7071067811865476
335 134 0.7071067811865476
336 35 1.0
336 119 -1.0
337 0 1.0
337 2 1.0
337 5 1.0
337 9 1.0
337 14 1.0
337 20 1.0
337 27 1.0
337 35 1.0
337 44 1.0
337 54 1.0
337 65 1.0
337 77 1.0
337 90 1.0
337 104 1.0
337 119 1.0
337 135 1.0

BCOORD
1
337 1.0
